50, 637
22, 17
9, 4
33, 28
23, 18
22, 17
14, 9
21, 16
46, 41
35, 30
34, 29
37, 32
22, 17
24, 19
33, 28
12, 7
53, 48
14, 9
50, 45
17, 12
53, 48
37, 32
48, 43
47, 42
11, 6
8, 3
34, 29
46, 41
31, 26
16, 11
31, 26
24, 19
6, 1
52, 47
33, 28
40, 35
29, 24
50, 45
54, 49
35, 30
50, 45
24, 19
9, 4
18, 13
9, 4
32, 27
55, 50
49, 44
16, 11
32, 27
25, 20
